param n := 249;
param c := 1000;
param : V : p w :=
   0	 461	 451
   1	 277	 267
   2	 292	 282
   3	 448	 438
   4	 285	 275
   5	 297	 287
   6	 407	 397
   7	 284	 274
   8	 339	 329
   9	 372	 362
  10	 313	 303
  11	 345	 335
  12	 501	 491
  13	 261	 251
  14	 268	 258
  15	 389	 379
  16	 266	 256
  17	 375	 365
  18	 404	 394
  19	 304	 294
  20	 322	 312
  21	 447	 437
  22	 284	 274
  23	 299	 289
  24	 448	 438
  25	 281	 271
  26	 301	 291
  27	 408	 398
  28	 300	 290
  29	 322	 312
  30	 406	 396
  31	 271	 261
  32	 353	 343
  33	 492	 482
  34	 262	 252
  35	 276	 266
  36	 435	 425
  37	 262	 252
  38	 333	 323
  39	 392	 382
  40	 301	 291
  41	 337	 327
  42	 424	 414
  43	 272	 262
  44	 334	 324
  45	 398	 388
  46	 261	 251
  47	 371	 361
  48	 436	 426
  49	 269	 259
  50	 325	 315
  51	 387	 377
  52	 268	 258
  53	 375	 365
  54	 465	 455
  55	 276	 266
  56	 289	 279
  57	 421	 411
  58	 270	 260
  59	 339	 329
  60	 366	 356
  61	 305	 295
  62	 359	 349
  63	 480	 470
  64	 267	 257
  65	 283	 273
  66	 459	 449
  67	 262	 252
  68	 309	 299
  69	 390	 380
  70	 290	 280
  71	 350	 340
  72	 388	 378
  73	 315	 305
  74	 327	 317
  75	 450	 440
  76	 265	 255
  77	 315	 305
  78	 445	 435
  79	 280	 270
  80	 305	 295
  81	 488	 478
  82	 262	 252
  83	 280	 270
  84	 456	 446
  85	 262	 252
  86	 312	 302
  87	 398	 388
  88	 284	 274
  89	 348	 338
  90	 486	 476
  91	 270	 260
  92	 274	 264
  93	 497	 487
  94	 260	 250
  95	 273	 263
  96	 479	 469
  97	 272	 262
  98	 279	 269
  99	 425	 415
 100	 267	 257
 101	 338	 328
 102	 379	 369
 103	 302	 292
 104	 349	 339
 105	 387	 377
 106	 307	 297
 107	 336	 326
 108	 421	 411
 109	 292	 282
 110	 317	 307
 111	 379	 369
 112	 291	 281
 113	 360	 350
 114	 446	 436
 115	 277	 267
 116	 307	 297
 117	 469	 459
 118	 268	 258
 119	 293	 283
 120	 468	 458
 121	 278	 268
 122	 284	 274
 123	 470	 460
 124	 261	 251
 125	 299	 289
 126	 498	 488
 127	 260	 250
 128	 272	 262
 129	 446	 436
 130	 273	 263
 131	 311	 301
 132	 437	 427
 133	 285	 275
 134	 308	 298
 135	 448	 438
 136	 283	 273
 137	 299	 289
 138	 470	 460
 139	 279	 269
 140	 281	 271
 141	 454	 444
 142	 271	 261
 143	 305	 295
 144	 487	 477
 145	 265	 255
 146	 278	 268
 147	 467	 457
 148	 266	 256
 149	 297	 287
 150	 429	 419
 151	 289	 279
 152	 312	 302
 153	 427	 417
 154	 274	 264
 155	 329	 319
 156	 427	 417
 157	 281	 271
 158	 322	 312
 159	 484	 474
 160	 263	 253
 161	 283	 273
 162	 385	 375
 163	 298	 288
 164	 347	 337
 165	 468	 458
 166	 279	 269
 167	 283	 273
 168	 374	 364
 169	 313	 303
 170	 343	 333
 171	 391	 381
 172	 272	 262
 173	 367	 357
 174	 363	 353
 175	 317	 307
 176	 350	 340
 177	 480	 470
 178	 270	 260
 179	 280	 270
 180	 376	 366
 181	 299	 289
 182	 355	 345
 183	 394	 384
 184	 274	 264
 185	 362	 352
 186	 379	 369
 187	 269	 259
 188	 382	 372
 189	 480	 470
 190	 265	 255
 191	 285	 275
 192	 481	 471
 193	 265	 255
 194	 284	 274
 195	 434	 424
 196	 290	 280
 197	 306	 296
 198	 450	 440
 199	 279	 269
 200	 301	 291
 201	 396	 386
 202	 260	 250
 203	 374	 364
 204	 470	 460
 205	 265	 255
 206	 295	 285
 207	 386	 376
 208	 302	 292
 209	 342	 332
 210	 366	 356
 211	 313	 303
 212	 351	 341
 213	 490	 480
 214	 267	 257
 215	 273	 263
 216	 434	 424
 217	 278	 268
 218	 318	 308
 219	 380	 370
 220	 285	 275
 221	 365	 355
 222	 504	 494
 223	 260	 250
 224	 266	 256
 225	 444	 434
 226	 274	 264
 227	 312	 302
 228	 473	 463
 229	 277	 267
 230	 280	 270
 231	 421	 411
 232	 290	 280
 233	 319	 309
 234	 437	 427
 235	 265	 255
 236	 328	 318
 237	 476	 466
 238	 269	 259
 239	 285	 275
 240	 501	 491
 241	 262	 252
 242	 267	 257
 243	 410	 400
 244	 296	 286
 245	 324	 314
 246	 456	 446
 247	 270	 260
 248	 304	 294
;

set E :=
   0	  11
   0	  26
   0	  27
   0	  30
   0	  35
   0	  37
   0	  64
   0	  71
   0	  85
   0	 111
   0	 120
   0	 134
   0	 141
   0	 142
   0	 150
   0	 167
   0	 172
   0	 173
   0	 183
   0	 194
   0	 216
   0	 217
   0	 243
   1	  14
   1	  18
   1	  19
   1	  24
   1	  26
   1	  37
   1	  51
   1	  57
   1	  61
   1	  68
   1	  72
   1	 102
   1	 104
   1	 110
   1	 131
   1	 144
   1	 152
   1	 166
   1	 167
   1	 170
   1	 174
   1	 200
   1	 211
   1	 214
   1	 235
   1	 236
   1	 237
   1	 244
   2	   7
   2	  38
   2	  43
   2	  72
   2	 105
   2	 128
   2	 135
   2	 147
   2	 158
   2	 171
   2	 180
   2	 188
   2	 205
   2	 208
   2	 232
   2	 246
   2	 247
   3	   5
   3	   6
   3	  29
   3	  43
   3	  57
   3	  74
   3	  97
   3	  99
   3	 102
   3	 111
   3	 114
   3	 122
   3	 123
   3	 124
   3	 129
   3	 142
   3	 154
   3	 168
   3	 172
   3	 183
   3	 186
   3	 199
   3	 206
   3	 208
   3	 214
   3	 220
   3	 222
   3	 226
   3	 248
   4	   8
   4	  28
   4	  54
   4	  61
   4	  62
   4	  66
   4	  77
   4	  79
   4	  83
   4	  91
   4	  95
   4	  99
   4	 112
   4	 126
   4	 129
   4	 141
   4	 142
   4	 161
   4	 162
   4	 173
   4	 182
   4	 206
   4	 212
   4	 231
   4	 235
   4	 237
   5	   8
   5	  15
   5	  25
   5	  31
   5	  33
   5	  35
   5	  46
   5	  52
   5	  60
   5	  72
   5	  79
   5	 126
   5	 136
   5	 144
   5	 147
   5	 161
   5	 171
   5	 189
   5	 195
   5	 215
   5	 240
   5	 242
   5	 247
   6	  26
   6	  30
   6	  35
   6	  40
   6	  48
   6	  58
   6	  65
   6	  66
   6	  71
   6	  89
   6	  92
   6	 100
   6	 105
   6	 119
   6	 128
   6	 142
   6	 158
   6	 165
   6	 167
   6	 184
   6	 195
   6	 200
   6	 221
   6	 228
   6	 233
   6	 237
   7	  14
   7	  16
   7	  20
   7	  24
   7	  28
   7	  47
   7	  56
   7	  66
   7	  73
   7	  74
   7	  89
   7	  93
   7	  99
   7	 103
   7	 125
   7	 134
   7	 137
   7	 146
   7	 148
   7	 151
   7	 174
   7	 180
   7	 187
   7	 215
   7	 234
   8	  13
   8	  23
   8	  41
   8	  55
   8	  67
   8	  75
   8	  77
   8	  98
   8	 102
   8	 104
   8	 114
   8	 120
   8	 121
   8	 123
   8	 127
   8	 154
   8	 155
   8	 166
   8	 182
   8	 192
   8	 200
   8	 208
   8	 213
   8	 222
   8	 236
   8	 237
   8	 246
   8	 248
   9	  10
   9	  20
   9	  43
   9	  46
   9	  74
   9	  79
   9	  98
   9	 103
   9	 128
   9	 159
   9	 160
   9	 165
   9	 177
   9	 191
   9	 192
   9	 198
   9	 208
   9	 241
  10	  14
  10	  21
  10	  25
  10	  32
  10	  54
  10	  57
  10	  62
  10	  75
  10	  86
  10	  93
  10	  97
  10	 105
  10	 107
  10	 118
  10	 136
  10	 144
  10	 164
  10	 174
  10	 177
  10	 197
  10	 202
  10	 204
  10	 208
  10	 214
  10	 227
  10	 228
  11	  82
  11	  87
  11	  91
  11	  92
  11	  94
  11	  98
  11	 102
  11	 124
  11	 126
  11	 140
  11	 149
  11	 157
  11	 174
  11	 179
  11	 211
  11	 213
  11	 216
  11	 231
  11	 248
  12	  27
  12	  32
  12	  43
  12	  45
  12	  46
  12	  53
  12	  56
  12	  78
  12	  80
  12	 107
  12	 117
  12	 129
  12	 141
  12	 168
  12	 169
  12	 182
  12	 186
  12	 188
  12	 193
  12	 199
  12	 218
  12	 226
  12	 232
  12	 234
  12	 238
  13	  17
  13	  27
  13	  31
  13	  67
  13	  77
  13	  78
  13	  89
  13	  93
  13	  97
  13	  98
  13	 116
  13	 134
  13	 144
  13	 147
  13	 169
  13	 175
  13	 179
  13	 202
  13	 210
  13	 211
  13	 216
  13	 225
  13	 231
  13	 235
  13	 243
  14	  52
  14	  59
  14	  67
  14	  68
  14	  81
  14	  84
  14	  86
  14	  94
  14	 110
  14	 120
  14	 168
  14	 176
  14	 178
  14	 179
  14	 191
  14	 196
  14	 198
  14	 199
  14	 209
  14	 233
  14	 236
  14	 240
  14	 241
  14	 245
  15	  30
  15	  32
  15	  40
  15	  47
  15	  48
  15	  51
  15	  52
  15	  55
  15	  57
  15	  66
  15	  76
  15	  83
  15	  92
  15	  95
  15	 109
  15	 124
  15	 145
  15	 149
  15	 155
  15	 176
  15	 179
  15	 180
  15	 185
  15	 191
  15	 222
  15	 231
  15	 242
  15	 247
  15	 248
  16	  33
  16	  42
  16	  53
  16	  86
  16	  91
  16	 107
  16	 123
  16	 144
  16	 149
  16	 171
  16	 181
  16	 185
  16	 187
  16	 230
  16	 233
  17	  19
  17	  21
  17	  24
  17	  25
  17	  34
  17	  44
  17	  45
  17	  51
  17	  71
  17	 102
  17	 110
  17	 114
  17	 118
  17	 128
  17	 142
  17	 155
  17	 161
  17	 167
  17	 178
  17	 179
  17	 182
  17	 183
  17	 185
  17	 198
  17	 203
  17	 230
  17	 235
  18	  32
  18	  57
  18	  61
  18	  75
  18	  81
  18	  95
  18	 101
  18	 107
  18	 130
  18	 133
  18	 134
  18	 157
  18	 175
  18	 189
  18	 206
  18	 208
  18	 234
  18	 238
  19	  26
  19	  44
  19	  53
  19	  54
  19	  82
  19	  92
  19	 115
  19	 122
  19	 146
  19	 157
  19	 159
  19	 166
  19	 169
  19	 173
  19	 181
  19	 192
  19	 194
  19	 196
  19	 198
  19	 204
  19	 214
  19	 216
  19	 217
  19	 223
  19	 224
  20	  40
  20	  41
  20	  47
  20	  75
  20	  79
  20	  85
  20	  93
  20	 112
  20	 118
  20	 129
  20	 142
  20	 152
  20	 161
  20	 167
  20	 173
  20	 181
  20	 187
  20	 202
  20	 216
  20	 226
  20	 231
  20	 247
  21	  45
  21	  47
  21	  51
  21	  55
  21	  84
  21	 100
  21	 105
  21	 107
  21	 129
  21	 135
  21	 137
  21	 156
  21	 163
  21	 178
  21	 186
  21	 195
  21	 205
  21	 216
  21	 232
  21	 236
  22	  32
  22	  44
  22	  48
  22	  63
  22	  64
  22	  77
  22	  84
  22	  93
  22	  96
  22	 101
  22	 109
  22	 110
  22	 117
  22	 126
  22	 128
  22	 130
  22	 164
  22	 168
  22	 176
  22	 184
  22	 195
  22	 208
  22	 230
  22	 232
  22	 236
  22	 239
  23	  42
  23	  48
  23	  49
  23	  56
  23	  65
  23	  68
  23	  77
  23	  82
  23	  83
  23	  89
  23	  93
  23	 100
  23	 110
  23	 120
  23	 127
  23	 128
  23	 144
  23	 154
  23	 163
  23	 180
  23	 198
  23	 199
  23	 212
  23	 220
  23	 226
  23	 240
  23	 243
  24	  53
  24	  61
  24	  78
  24	  83
  24	  93
  24	 159
  24	 161
  24	 197
  24	 204
  24	 220
  24	 233
  24	 239
  24	 246
  25	  36
  25	  45
  25	  55
  25	  58
  25	  64
  25	  78
  25	  88
  25	  90
  25	  95
  25	  99
  25	 112
  25	 115
  25	 125
  25	 140
  25	 144
  25	 150
  25	 161
  25	 163
  25	 165
  25	 170
  25	 171
  25	 172
  25	 174
  25	 178
  25	 197
  25	 221
  25	 230
  25	 232
  25	 243
  25	 244
  26	  28
  26	  34
  26	  80
  26	  82
  26	 118
  26	 141
  26	 151
  26	 162
  26	 168
  26	 173
  26	 179
  26	 214
  26	 216
  26	 230
  26	 241
  27	  57
  27	  58
  27	  66
  27	  76
  27	  80
  27	  93
  27	 105
  27	 112
  27	 119
  27	 142
  27	 149
  27	 192
  27	 204
  27	 207
  27	 216
  27	 223
  27	 229
  27	 231
  27	 236
  28	  29
  28	  52
  28	  59
  28	  72
  28	  76
  28	 104
  28	 109
  28	 115
  28	 127
  28	 134
  28	 154
  28	 171
  28	 178
  28	 237
  28	 240
  28	 246
  29	  32
  29	  56
  29	  59
  29	  65
  29	  67
  29	  81
  29	 102
  29	 123
  29	 141
  29	 144
  29	 155
  29	 157
  29	 165
  29	 171
  29	 233
  29	 241
  29	 245
  29	 247
  29	 248
  30	  36
  30	  77
  30	  78
  30	 100
  30	 101
  30	 111
  30	 116
  30	 122
  30	 141
  30	 152
  30	 154
  30	 179
  30	 183
  30	 208
  30	 214
  30	 230
  30	 243
  31	  55
  31	  64
  31	  73
  31	  91
  31	  99
  31	 114
  31	 117
  31	 120
  31	 133
  31	 154
  31	 178
  31	 184
  31	 204
  31	 215
  31	 235
  31	 237
  31	 243
  31	 244
  32	  37
  32	  66
  32	  71
  32	  79
  32	  80
  32	 102
  32	 163
  32	 171
  32	 179
  32	 182
  32	 189
  32	 194
  32	 210
  32	 217
  32	 225
  32	 228
  32	 237
  32	 243
  32	 245
  33	  36
  33	  38
  33	  40
  33	  42
  33	  48
  33	  64
  33	  78
  33	  80
  33	  87
  33	 110
  33	 112
  33	 113
  33	 118
  33	 124
  33	 136
  33	 138
  33	 147
  33	 151
  33	 154
  33	 161
  33	 176
  33	 183
  33	 184
  33	 186
  33	 197
  33	 201
  33	 213
  33	 234
  33	 235
  33	 243
  33	 247
  34	  42
  34	  44
  34	  49
  34	  63
  34	  69
  34	  70
  34	  73
  34	  75
  34	  89
  34	  95
  34	 109
  34	 114
  34	 141
  34	 158
  34	 174
  34	 178
  34	 180
  34	 181
  34	 185
  34	 188
  34	 198
  34	 200
  34	 205
  34	 209
  34	 216
  34	 224
  35	  38
  35	  39
  35	  56
  35	  67
  35	  69
  35	  82
  35	  85
  35	  86
  35	  95
  35	  97
  35	 100
  35	 137
  35	 149
  35	 151
  35	 165
  35	 168
  35	 200
  35	 201
  35	 212
  35	 226
  35	 235
  35	 236
  35	 244
  36	  37
  36	  40
  36	  67
  36	  85
  36	  86
  36	  92
  36	 100
  36	 101
  36	 107
  36	 123
  36	 127
  36	 134
  36	 145
  36	 146
  36	 160
  36	 167
  36	 176
  36	 199
  36	 221
  36	 227
  36	 232
  36	 233
  36	 241
  37	  41
  37	  55
  37	  71
  37	  92
  37	 100
  37	 107
  37	 112
  37	 125
  37	 139
  37	 150
  37	 153
  37	 157
  37	 160
  37	 174
  37	 189
  37	 193
  37	 195
  37	 209
  37	 212
  37	 224
  38	  52
  38	  66
  38	  67
  38	  76
  38	 118
  38	 133
  38	 139
  38	 141
  38	 193
  38	 208
  38	 209
  38	 217
  38	 220
  38	 222
  38	 225
  38	 227
  38	 232
  38	 243
  38	 245
  39	  47
  39	  60
  39	  69
  39	  97
  39	 145
  39	 151
  39	 165
  39	 168
  39	 176
  39	 201
  39	 222
  39	 228
  39	 235
  39	 238
  39	 244
  40	  47
  40	  51
  40	  94
  40	 106
  40	 114
  40	 139
  40	 144
  40	 162
  40	 163
  40	 174
  40	 181
  40	 215
  40	 225
  40	 226
  40	 227
  40	 241
  41	  48
  41	  68
  41	  69
  41	  71
  41	  79
  41	  82
  41	 105
  41	 127
  41	 142
  41	 166
  41	 173
  41	 185
  41	 188
  41	 193
  41	 194
  41	 197
  41	 209
  41	 214
  41	 222
  41	 224
  41	 238
  41	 239
  41	 241
  41	 244
  42	  43
  42	  55
  42	  56
  42	  63
  42	  81
  42	  87
  42	  99
  42	 108
  42	 110
  42	 134
  42	 139
  42	 144
  42	 169
  42	 195
  42	 225
  42	 241
  42	 245
  43	  54
  43	  55
  43	  58
  43	  60
  43	  64
  43	  66
  43	  70
  43	  82
  43	  91
  43	 111
  43	 122
  43	 130
  43	 139
  43	 167
  43	 179
  43	 204
  43	 208
  43	 217
  43	 219
  43	 226
  43	 231
  43	 239
  44	  72
  44	  76
  44	  80
  44	  85
  44	 100
  44	 116
  44	 121
  44	 126
  44	 130
  44	 135
  44	 137
  44	 144
  44	 173
  44	 188
  44	 194
  44	 238
  45	  49
  45	  51
  45	  88
  45	  90
  45	 123
  45	 126
  45	 143
  45	 144
  45	 145
  45	 151
  45	 177
  45	 178
  45	 200
  45	 203
  45	 216
  45	 222
  45	 238
  45	 243
  46	  84
  46	 101
  46	 102
  46	 103
  46	 111
  46	 117
  46	 121
  46	 128
  46	 134
  46	 147
  46	 162
  46	 164
  46	 167
  46	 177
  46	 195
  46	 202
  46	 212
  46	 234
  46	 235
  46	 240
  47	  53
  47	  78
  47	  91
  47	 100
  47	 107
  47	 113
  47	 117
  47	 128
  47	 129
  47	 137
  47	 139
  47	 153
  47	 154
  47	 155
  47	 184
  47	 192
  47	 197
  47	 211
  47	 214
  47	 226
  47	 228
  47	 235
  48	  58
  48	  70
  48	  91
  48	  92
  48	  93
  48	  97
  48	 104
  48	 110
  48	 119
  48	 126
  48	 136
  48	 152
  48	 164
  48	 174
  48	 180
  48	 191
  48	 197
  48	 206
  48	 216
  48	 217
  48	 228
  48	 245
  48	 247
  49	  53
  49	  54
  49	  58
  49	  73
  49	  96
  49	  97
  49	 110
  49	 129
  49	 143
  49	 150
  49	 157
  49	 164
  49	 186
  49	 187
  49	 190
  49	 198
  49	 210
  49	 218
  49	 219
  49	 234
  49	 235
  49	 243
  50	  56
  50	  58
  50	  62
  50	  64
  50	  81
  50	  82
  50	  85
  50	  87
  50	  96
  50	  97
  50	 105
  50	 111
  50	 141
  50	 186
  50	 198
  50	 199
  50	 207
  50	 215
  50	 219
  50	 225
  50	 231
  50	 237
  50	 238
  51	  58
  51	  68
  51	  69
  51	  76
  51	  78
  51	  83
  51	  89
  51	  94
  51	  98
  51	 101
  51	 111
  51	 113
  51	 115
  51	 119
  51	 120
  51	 125
  51	 160
  51	 164
  51	 169
  51	 173
  51	 179
  51	 184
  51	 202
  51	 206
  51	 211
  51	 214
  51	 221
  51	 224
  51	 225
  51	 230
  52	  66
  52	  76
  52	  80
  52	  84
  52	  87
  52	 139
  52	 150
  52	 151
  52	 183
  52	 190
  52	 199
  52	 205
  52	 208
  52	 224
  52	 230
  52	 242
  53	  55
  53	  58
  53	  65
  53	  84
  53	  85
  53	  92
  53	 107
  53	 109
  53	 118
  53	 124
  53	 140
  53	 150
  53	 153
  53	 193
  53	 197
  53	 207
  53	 220
  53	 221
  53	 238
  53	 248
  54	  60
  54	  77
  54	  86
  54	 105
  54	 108
  54	 121
  54	 160
  54	 175
  54	 209
  54	 213
  54	 229
  54	 230
  55	  61
  55	  66
  55	  75
  55	  95
  55	 116
  55	 152
  55	 154
  55	 169
  55	 200
  55	 205
  55	 218
  55	 220
  55	 229
  55	 231
  55	 232
  55	 237
  56	  58
  56	  68
  56	  72
  56	  74
  56	  79
  56	  85
  56	  91
  56	  95
  56	  96
  56	 108
  56	 132
  56	 135
  56	 138
  56	 142
  56	 160
  56	 200
  56	 211
  56	 214
  56	 221
  56	 223
  56	 224
  56	 239
  57	  71
  57	  84
  57	  89
  57	  91
  57	 103
  57	 112
  57	 118
  57	 126
  57	 134
  57	 135
  57	 193
  57	 196
  57	 197
  57	 199
  57	 211
  57	 214
  57	 231
  57	 234
  57	 237
  57	 241
  57	 243
  57	 244
  57	 245
  58	  73
  58	  83
  58	  85
  58	  95
  58	 102
  58	 121
  58	 129
  58	 131
  58	 138
  58	 139
  58	 161
  58	 179
  58	 183
  58	 199
  58	 220
  58	 222
  58	 233
  58	 246
  58	 247
  59	  61
  59	  69
  59	  71
  59	  76
  59	  83
  59	  96
  59	 114
  59	 135
  59	 141
  59	 144
  59	 165
  59	 171
  59	 178
  59	 187
  59	 209
  59	 213
  59	 218
  60	  69
  60	  76
  60	  79
  60	 118
  60	 173
  60	 178
  60	 187
  60	 189
  60	 192
  60	 198
  60	 200
  60	 213
  61	  85
  61	  97
  61	 115
  61	 118
  61	 123
  61	 132
  61	 134
  61	 140
  61	 142
  61	 143
  61	 154
  61	 155
  61	 172
  61	 200
  61	 202
  61	 209
  61	 212
  61	 230
  61	 244
  61	 245
  62	  65
  62	  73
  62	  79
  62	  83
  62	  88
  62	 118
  62	 120
  62	 125
  62	 138
  62	 144
  62	 158
  62	 169
  62	 176
  62	 177
  62	 179
  62	 186
  62	 189
  62	 199
  62	 219
  62	 238
  62	 241
  62	 246
  63	  98
  63	 107
  63	 116
  63	 119
  63	 127
  63	 130
  63	 146
  63	 148
  63	 153
  63	 156
  63	 158
  63	 161
  63	 169
  63	 175
  63	 179
  63	 180
  63	 189
  63	 206
  63	 223
  63	 225
  63	 234
  64	  70
  64	  71
  64	  81
  64	  82
  64	  83
  64	 109
  64	 113
  64	 116
  64	 117
  64	 140
  64	 141
  64	 152
  64	 173
  64	 186
  64	 191
  64	 194
  64	 210
  64	 212
  64	 217
  64	 222
  64	 243
  65	  67
  65	  75
  65	  78
  65	  82
  65	 105
  65	 143
  65	 148
  65	 164
  65	 181
  65	 188
  65	 198
  65	 202
  65	 203
  65	 242
  65	 243
  65	 247
  65	 248
  66	  71
  66	  73
  66	  81
  66	  85
  66	  86
  66	  88
  66	 101
  66	 107
  66	 108
  66	 120
  66	 124
  66	 127
  66	 130
  66	 137
  66	 141
  66	 145
  66	 152
  66	 154
  66	 162
  66	 184
  66	 189
  66	 201
  66	 203
  66	 207
  66	 232
  66	 241
  66	 247
  67	  76
  67	  89
  67	  92
  67	 110
  67	 113
  67	 157
  67	 183
  67	 188
  67	 197
  67	 210
  67	 217
  67	 229
  67	 232
  67	 247
  68	  69
  68	  70
  68	  85
  68	  99
  68	 106
  68	 109
  68	 115
  68	 120
  68	 122
  68	 127
  68	 129
  68	 152
  68	 156
  68	 170
  68	 183
  68	 188
  68	 195
  68	 202
  68	 210
  68	 217
  68	 222
  68	 229
  69	  89
  69	  95
  69	 106
  69	 131
  69	 138
  69	 146
  69	 157
  69	 162
  69	 169
  69	 176
  69	 177
  69	 184
  69	 187
  69	 196
  69	 214
  69	 219
  69	 226
  69	 240
  69	 243
  70	  79
  70	  87
  70	  98
  70	 125
  70	 131
  70	 133
  70	 146
  70	 163
  70	 164
  70	 172
  70	 195
  70	 200
  70	 208
  70	 212
  70	 217
  70	 232
  70	 233
  70	 239
  70	 242
  71	  75
  71	  79
  71	  83
  71	  93
  71	 106
  71	 113
  71	 120
  71	 137
  71	 138
  71	 149
  71	 155
  71	 159
  71	 170
  71	 211
  71	 217
  71	 222
  71	 223
  71	 225
  71	 241
  72	  92
  72	  93
  72	  98
  72	 112
  72	 132
  72	 148
  72	 152
  72	 210
  72	 212
  72	 213
  72	 216
  72	 225
  72	 239
  72	 242
  73	  80
  73	  86
  73	  87
  73	  91
  73	 104
  73	 110
  73	 131
  73	 140
  73	 141
  73	 143
  73	 145
  73	 151
  73	 154
  73	 160
  73	 184
  73	 186
  73	 191
  73	 193
  73	 195
  73	 209
  73	 210
  73	 216
  73	 227
  73	 238
  73	 244
  74	  85
  74	  86
  74	  99
  74	 100
  74	 102
  74	 111
  74	 114
  74	 117
  74	 130
  74	 140
  74	 151
  74	 162
  74	 164
  74	 166
  74	 170
  74	 176
  74	 177
  74	 182
  74	 187
  74	 194
  74	 198
  74	 218
  74	 235
  74	 240
  75	  76
  75	  83
  75	  91
  75	  94
  75	  97
  75	  99
  75	 126
  75	 140
  75	 141
  75	 144
  75	 173
  75	 198
  75	 200
  75	 204
  75	 205
  75	 214
  75	 216
  75	 226
  75	 231
  75	 237
  76	  81
  76	  82
  76	  94
  76	  97
  76	 121
  76	 124
  76	 126
  76	 128
  76	 129
  76	 133
  76	 152
  76	 158
  76	 159
  76	 167
  76	 169
  76	 170
  76	 196
  76	 199
  76	 208
  76	 214
  76	 220
  76	 233
  76	 238
  76	 239
  76	 246
  77	  95
  77	 111
  77	 142
  77	 146
  77	 147
  77	 161
  77	 211
  78	  84
  78	  90
  78	 102
  78	 117
  78	 126
  78	 134
  78	 140
  78	 147
  78	 161
  78	 167
  78	 171
  78	 173
  78	 174
  78	 190
  78	 208
  78	 212
  78	 222
  78	 223
  79	  96
  79	 138
  79	 140
  79	 142
  79	 144
  79	 147
  79	 157
  79	 160
  79	 179
  79	 181
  79	 203
  79	 210
  79	 212
  79	 218
  79	 228
  79	 233
  80	  90
  80	  91
  80	  96
  80	 101
  80	 108
  80	 120
  80	 126
  80	 127
  80	 137
  80	 146
  80	 157
  80	 161
  80	 167
  80	 199
  80	 212
  80	 217
  80	 222
  80	 237
  80	 238
  80	 241
  81	  92
  81	 103
  81	 107
  81	 116
  81	 137
  81	 159
  81	 178
  81	 180
  81	 194
  81	 214
  81	 225
  81	 246
  82	  84
  82	  92
  82	 110
  82	 133
  82	 136
  82	 137
  82	 141
  82	 142
  82	 146
  82	 154
  82	 156
  82	 161
  82	 163
  82	 167
  82	 168
  82	 194
  82	 203
  82	 220
  82	 221
  82	 227
  83	  98
  83	 113
  83	 115
  83	 126
  83	 127
  83	 131
  83	 137
  83	 152
  83	 153
  83	 155
  83	 159
  83	 174
  83	 188
  83	 198
  83	 208
  83	 220
  83	 222
  83	 234
  83	 239
  84	  85
  84	  93
  84	  94
  84	 116
  84	 120
  84	 133
  84	 153
  84	 167
  84	 170
  84	 171
  84	 175
  84	 209
  84	 223
  84	 224
  84	 227
  84	 231
  84	 245
  84	 247
  85	  98
  85	 121
  85	 123
  85	 124
  85	 134
  85	 157
  85	 159
  85	 191
  86	  89
  86	  95
  86	 111
  86	 114
  86	 116
  86	 119
  86	 122
  86	 131
  86	 140
  86	 156
  86	 162
  86	 167
  86	 175
  86	 178
  86	 188
  86	 192
  86	 202
  86	 218
  86	 225
  86	 226
  86	 233
  86	 237
  86	 239
  87	  96
  87	 132
  87	 140
  87	 141
  87	 153
  87	 157
  87	 162
  87	 177
  87	 195
  87	 206
  87	 207
  87	 217
  87	 218
  87	 220
  87	 226
  87	 228
  87	 232
  87	 234
  87	 243
  88	 111
  88	 114
  88	 121
  88	 122
  88	 134
  88	 147
  88	 148
  88	 153
  88	 176
  88	 180
  88	 199
  88	 202
  88	 203
  88	 214
  88	 216
  88	 223
  88	 224
  88	 229
  88	 238
  88	 242
  88	 246
  89	  94
  89	 111
  89	 126
  89	 147
  89	 152
  89	 177
  89	 191
  89	 192
  89	 194
  89	 202
  89	 209
  89	 232
  89	 245
  89	 248
  90	  92
  90	 108
  90	 128
  90	 136
  90	 153
  90	 158
  90	 159
  90	 169
  90	 176
  90	 180
  90	 191
  90	 198
  90	 224
  90	 244
  91	 107
  91	 113
  91	 116
  91	 117
  91	 129
  91	 130
  91	 146
  91	 161
  91	 166
  91	 184
  91	 200
  91	 201
  91	 207
  91	 213
  91	 220
  91	 223
  91	 227
  91	 232
  91	 233
  91	 240
  92	  98
  92	 108
  92	 149
  92	 152
  92	 190
  92	 191
  92	 211
  92	 213
  92	 222
  92	 232
  92	 240
  93	 105
  93	 121
  93	 125
  93	 142
  93	 143
  93	 150
  93	 151
  93	 176
  93	 179
  93	 183
  93	 192
  93	 208
  93	 218
  93	 227
  93	 239
  93	 240
  94	  97
  94	 104
  94	 108
  94	 129
  94	 152
  94	 155
  94	 156
  94	 158
  94	 161
  94	 170
  94	 176
  94	 185
  94	 190
  94	 203
  94	 220
  94	 222
  94	 224
  94	 225
  94	 228
  95	 111
  95	 173
  95	 182
  95	 190
  95	 193
  95	 195
  95	 202
  95	 215
  95	 226
  95	 237
  95	 238
  95	 247
  96	 115
  96	 123
  96	 134
  96	 154
  96	 156
  96	 157
  96	 166
  96	 167
  96	 180
  96	 182
  96	 186
  96	 189
  96	 192
  96	 223
  96	 242
  97	 103
  97	 113
  97	 123
  97	 126
  97	 136
  97	 151
  97	 155
  97	 157
  97	 169
  97	 174
  97	 184
  97	 190
  97	 194
  97	 200
  97	 205
  97	 211
  97	 213
  98	 100
  98	 102
  98	 114
  98	 122
  98	 131
  98	 151
  98	 152
  98	 161
  98	 168
  98	 223
  98	 233
  98	 246
  99	 101
  99	 111
  99	 126
  99	 128
  99	 134
  99	 137
  99	 140
  99	 145
  99	 153
  99	 155
  99	 173
  99	 190
  99	 205
  99	 207
  99	 211
  99	 215
  99	 231
 100	 106
 100	 116
 100	 124
 100	 127
 100	 141
 100	 169
 100	 175
 100	 177
 100	 185
 100	 203
 100	 210
 100	 214
 100	 222
 100	 240
 100	 245
 101	 133
 101	 138
 101	 146
 101	 158
 101	 172
 101	 176
 101	 178
 101	 184
 101	 187
 101	 189
 101	 194
 101	 201
 101	 230
 102	 107
 102	 120
 102	 134
 102	 140
 102	 150
 102	 162
 102	 164
 102	 175
 102	 178
 102	 187
 102	 189
 102	 196
 102	 199
 102	 213
 102	 233
 102	 237
 102	 242
 103	 119
 103	 136
 103	 138
 103	 141
 103	 157
 103	 161
 103	 164
 103	 177
 103	 210
 103	 215
 103	 221
 103	 224
 103	 234
 104	 137
 104	 155
 104	 206
 104	 231
 104	 236
 104	 237
 105	 106
 105	 121
 105	 122
 105	 125
 105	 134
 105	 142
 105	 161
 105	 183
 105	 185
 105	 209
 105	 220
 105	 225
 105	 239
 105	 244
 105	 245
 105	 248
 106	 107
 106	 115
 106	 119
 106	 125
 106	 133
 106	 136
 106	 173
 106	 179
 106	 181
 106	 195
 106	 201
 106	 210
 106	 223
 107	 135
 107	 141
 107	 147
 107	 178
 107	 187
 107	 190
 107	 200
 107	 203
 107	 208
 107	 210
 107	 231
 108	 120
 108	 133
 108	 174
 108	 180
 108	 202
 108	 209
 108	 214
 108	 220
 108	 226
 108	 233
 108	 236
 108	 240
 108	 245
 108	 248
 109	 115
 109	 129
 109	 134
 109	 135
 109	 141
 109	 151
 109	 203
 109	 230
 109	 233
 109	 235
 110	 113
 110	 114
 110	 122
 110	 127
 110	 130
 110	 132
 110	 150
 110	 173
 110	 178
 110	 216
 110	 233
 110	 236
 111	 130
 111	 134
 111	 164
 111	 173
 111	 198
 111	 202
 111	 213
 111	 221
 111	 225
 111	 228
 111	 229
 111	 238
 111	 239
 112	 116
 112	 127
 112	 157
 112	 158
 112	 162
 112	 179
 112	 187
 112	 194
 112	 200
 112	 203
 112	 207
 112	 209
 112	 212
 112	 225
 113	 163
 113	 164
 113	 180
 113	 192
 113	 196
 113	 199
 113	 202
 113	 235
 114	 127
 114	 131
 114	 133
 114	 139
 114	 156
 114	 173
 114	 175
 114	 178
 114	 179
 114	 184
 114	 198
 114	 209
 114	 226
 114	 231
 114	 233
 114	 238
 115	 125
 115	 147
 115	 154
 115	 163
 115	 164
 115	 167
 115	 192
 115	 196
 115	 201
 115	 207
 115	 211
 115	 214
 115	 227
 115	 230
 115	 232
 115	 239
 115	 240
 115	 243
 116	 129
 116	 136
 116	 165
 116	 172
 116	 173
 116	 175
 116	 185
 116	 186
 116	 195
 116	 197
 116	 202
 116	 234
 116	 243
 117	 126
 117	 136
 117	 138
 117	 151
 117	 152
 117	 160
 117	 165
 117	 173
 117	 176
 117	 184
 117	 186
 117	 209
 117	 225
 117	 233
 117	 248
 118	 121
 118	 136
 118	 147
 118	 151
 118	 181
 118	 193
 118	 204
 118	 217
 118	 233
 118	 236
 118	 239
 119	 128
 119	 132
 119	 134
 119	 137
 119	 144
 119	 157
 119	 161
 119	 172
 119	 182
 119	 186
 119	 201
 119	 209
 119	 217
 119	 218
 119	 224
 119	 248
 120	 128
 120	 151
 120	 152
 120	 153
 120	 161
 120	 162
 120	 167
 120	 178
 120	 193
 120	 197
 120	 205
 120	 220
 120	 222
 120	 246
 121	 179
 121	 192
 121	 200
 121	 209
 121	 214
 121	 221
 121	 233
 121	 240
 121	 245
 122	 153
 122	 155
 122	 156
 122	 158
 122	 173
 122	 174
 122	 186
 122	 193
 122	 201
 122	 202
 122	 231
 122	 236
 122	 242
 123	 125
 123	 128
 123	 130
 123	 147
 123	 148
 123	 168
 123	 181
 123	 182
 123	 185
 123	 188
 123	 200
 123	 201
 123	 228
 123	 229
 123	 233
 124	 129
 124	 143
 124	 169
 124	 180
 124	 190
 124	 203
 124	 210
 124	 217
 124	 221
 124	 246
 124	 248
 125	 131
 125	 132
 125	 137
 125	 158
 125	 166
 125	 195
 125	 208
 125	 242
 126	 143
 126	 153
 126	 155
 126	 163
 126	 166
 126	 167
 126	 169
 126	 171
 126	 187
 126	 194
 126	 208
 126	 211
 126	 213
 126	 217
 126	 222
 126	 228
 126	 239
 127	 132
 127	 139
 127	 142
 127	 167
 127	 170
 127	 173
 127	 184
 127	 191
 127	 195
 127	 197
 127	 204
 127	 219
 127	 222
 127	 236
 127	 240
 127	 245
 128	 129
 128	 133
 128	 138
 128	 144
 128	 167
 128	 179
 128	 180
 128	 209
 128	 223
 128	 230
 128	 235
 128	 237
 128	 238
 128	 248
 129	 139
 129	 146
 129	 149
 129	 156
 129	 177
 129	 188
 129	 190
 129	 194
 129	 207
 129	 222
 129	 230
 129	 241
 130	 133
 130	 150
 130	 152
 130	 153
 130	 158
 130	 163
 130	 189
 130	 200
 130	 206
 130	 208
 130	 209
 130	 213
 130	 228
 130	 233
 131	 170
 131	 172
 131	 180
 131	 188
 131	 192
 131	 208
 131	 212
 131	 230
 131	 232
 131	 239
 132	 146
 132	 149
 132	 150
 132	 153
 132	 159
 132	 170
 132	 241
 133	 142
 133	 145
 133	 146
 133	 154
 133	 156
 133	 160
 133	 181
 133	 188
 133	 197
 133	 221
 133	 236
 134	 143
 134	 152
 134	 160
 134	 168
 134	 169
 134	 175
 134	 182
 134	 198
 134	 200
 134	 232
 134	 233
 134	 248
 135	 136
 135	 143
 135	 148
 135	 149
 135	 156
 135	 172
 135	 192
 135	 199
 135	 218
 136	 138
 136	 143
 136	 150
 136	 155
 136	 159
 136	 162
 136	 163
 136	 165
 136	 166
 136	 183
 136	 185
 136	 186
 136	 187
 136	 189
 136	 196
 136	 228
 137	 138
 137	 145
 137	 149
 137	 151
 137	 153
 137	 183
 137	 184
 137	 187
 137	 193
 137	 194
 137	 199
 137	 208
 137	 227
 137	 229
 137	 239
 137	 245
 138	 157
 138	 181
 138	 196
 138	 202
 138	 215
 138	 222
 138	 247
 139	 143
 139	 146
 139	 149
 139	 150
 139	 158
 139	 170
 139	 175
 139	 191
 139	 194
 139	 211
 139	 217
 139	 219
 139	 224
 139	 242
 139	 244
 139	 247
 139	 248
 140	 160
 140	 162
 140	 169
 140	 176
 140	 187
 140	 189
 140	 190
 140	 192
 140	 193
 140	 195
 140	 201
 140	 202
 140	 217
 140	 223
 140	 227
 140	 228
 141	 145
 141	 153
 141	 154
 141	 157
 141	 169
 141	 184
 141	 192
 141	 211
 141	 220
 141	 223
 141	 228
 141	 239
 141	 241
 142	 149
 142	 154
 142	 175
 142	 186
 142	 190
 142	 209
 142	 229
 142	 232
 142	 239
 143	 144
 143	 148
 143	 150
 143	 162
 143	 178
 143	 192
 143	 214
 143	 219
 143	 231
 143	 245
 143	 248
 144	 145
 144	 155
 144	 169
 144	 190
 144	 192
 144	 194
 144	 228
 144	 229
 144	 236
 144	 242
 144	 248
 145	 200
 145	 203
 145	 221
 145	 224
 145	 235
 145	 242
 145	 247
 146	 163
 146	 175
 146	 185
 146	 190
 146	 225
 146	 232
 146	 236
 146	 243
 146	 245
 147	 148
 147	 157
 147	 163
 147	 179
 147	 180
 147	 186
 147	 198
 147	 199
 147	 233
 147	 234
 148	 150
 148	 172
 148	 177
 148	 180
 148	 184
 148	 192
 148	 218
 148	 232
 148	 233
 149	 169
 149	 194
 149	 200
 149	 204
 149	 213
 149	 227
 149	 242
 149	 244
 150	 155
 150	 161
 150	 189
 150	 200
 150	 204
 150	 222
 150	 223
 150	 228
 150	 231
 150	 244
 151	 153
 151	 158
 151	 163
 151	 165
 151	 181
 151	 183
 151	 189
 151	 210
 151	 215
 151	 217
 151	 218
 151	 230
 151	 238
 151	 240
 152	 167
 152	 173
 152	 174
 152	 181
 152	 183
 152	 188
 152	 192
 152	 204
 152	 218
 152	 237
 153	 189
 153	 193
 153	 198
 153	 205
 153	 220
 153	 226
 153	 246
 154	 160
 154	 180
 154	 188
 154	 202
 154	 206
 154	 211
 154	 216
 154	 218
 154	 245
 155	 159
 155	 160
 155	 161
 155	 194
 155	 199
 155	 202
 155	 215
 155	 216
 155	 221
 155	 225
 155	 233
 155	 245
 155	 247
 156	 176
 156	 181
 156	 186
 156	 198
 156	 205
 156	 212
 156	 215
 156	 245
 156	 248
 157	 169
 157	 194
 157	 234
 157	 240
 157	 246
 158	 170
 158	 174
 158	 176
 158	 181
 158	 199
 158	 213
 158	 224
 158	 229
 158	 245
 158	 248
 159	 180
 159	 212
 159	 231
 159	 235
 160	 161
 160	 169
 160	 197
 160	 199
 160	 202
 160	 203
 160	 210
 160	 212
 160	 213
 160	 223
 160	 236
 160	 242
 161	 176
 161	 183
 161	 188
 161	 190
 161	 191
 161	 217
 161	 226
 161	 238
 161	 247
 162	 190
 162	 206
 162	 227
 162	 234
 162	 246
 163	 171
 163	 178
 163	 183
 163	 185
 163	 189
 163	 218
 163	 221
 163	 229
 163	 236
 163	 237
 163	 248
 164	 165
 164	 166
 164	 173
 164	 175
 164	 178
 164	 186
 164	 191
 164	 220
 165	 192
 165	 206
 165	 207
 165	 230
 165	 235
 166	 190
 166	 191
 166	 205
 166	 216
 166	 217
 166	 238
 166	 242
 166	 243
 166	 245
 167	 172
 167	 196
 167	 197
 167	 221
 167	 227
 167	 231
 167	 237
 167	 242
 168	 169
 168	 175
 168	 185
 168	 194
 168	 203
 168	 204
 168	 217
 168	 228
 168	 235
 169	 179
 169	 191
 169	 206
 169	 230
 170	 195
 170	 197
 170	 198
 170	 205
 170	 222
 170	 223
 170	 228
 170	 234
 170	 247
 171	 173
 171	 179
 171	 191
 171	 192
 171	 194
 171	 200
 171	 223
 171	 228
 172	 183
 172	 195
 172	 197
 172	 201
 172	 204
 172	 209
 172	 211
 172	 237
 172	 243
 173	 176
 173	 181
 173	 184
 173	 191
 173	 192
 173	 193
 173	 196
 173	 204
 173	 209
 173	 217
 173	 224
 173	 244
 174	 178
 174	 185
 174	 192
 174	 199
 174	 232
 174	 239
 175	 181
 175	 186
 175	 195
 175	 200
 175	 218
 175	 227
 175	 228
 176	 180
 176	 186
 176	 189
 176	 193
 176	 198
 176	 208
 176	 221
 176	 224
 176	 232
 177	 186
 177	 191
 177	 224
 178	 181
 178	 187
 178	 188
 178	 199
 178	 210
 178	 224
 178	 229
 178	 231
 178	 236
 179	 183
 179	 227
 179	 246
 180	 234
 181	 191
 181	 192
 181	 193
 181	 196
 181	 206
 181	 207
 181	 217
 181	 222
 182	 183
 182	 199
 182	 228
 182	 244
 183	 186
 183	 190
 183	 191
 183	 192
 183	 212
 183	 219
 183	 220
 183	 229
 183	 247
 184	 188
 184	 193
 184	 194
 184	 201
 184	 203
 184	 209
 184	 213
 185	 192
 185	 205
 185	 211
 185	 234
 185	 236
 185	 245
 186	 198
 186	 203
 186	 205
 186	 206
 186	 228
 186	 239
 187	 193
 187	 195
 187	 200
 187	 230
 187	 235
 187	 245
 188	 205
 188	 206
 188	 212
 188	 214
 188	 220
 188	 223
 188	 232
 188	 234
 188	 247
 189	 190
 189	 196
 189	 216
 189	 224
 189	 230
 189	 247
 190	 192
 190	 200
 190	 202
 190	 218
 190	 223
 190	 233
 190	 234
 190	 236
 190	 240
 191	 210
 191	 238
 191	 243
 192	 202
 192	 204
 192	 215
 192	 223
 192	 229
 192	 231
 193	 203
 193	 219
 193	 226
 193	 232
 193	 234
 193	 237
 193	 246
 193	 248
 194	 196
 194	 201
 194	 213
 194	 214
 194	 225
 194	 233
 194	 246
 195	 207
 195	 211
 195	 222
 195	 245
 196	 201
 196	 213
 197	 208
 197	 210
 197	 223
 197	 227
 197	 234
 197	 241
 197	 243
 198	 205
 198	 206
 198	 207
 198	 214
 198	 220
 198	 239
 198	 244
 199	 202
 199	 212
 199	 214
 199	 217
 199	 219
 199	 228
 199	 233
 199	 241
 200	 222
 200	 226
 200	 227
 200	 231
 200	 241
 200	 248
 201	 205
 201	 207
 201	 215
 201	 224
 201	 232
 201	 235
 201	 245
 202	 220
 202	 221
 202	 222
 202	 226
 202	 232
 202	 236
 203	 223
 203	 226
 204	 216
 204	 227
 204	 228
 204	 235
 204	 247
 205	 210
 205	 227
 205	 228
 205	 230
 205	 232
 205	 247
 206	 219
 206	 227
 207	 218
 207	 224
 207	 242
 208	 213
 208	 216
 208	 218
 208	 222
 208	 227
 208	 230
 208	 233
 208	 243
 209	 214
 209	 223
 209	 224
 209	 232
 209	 238
 209	 240
 209	 245
 210	 236
 210	 237
 211	 218
 211	 237
 212	 225
 212	 226
 212	 243
 213	 229
 213	 231
 213	 234
 213	 235
 213	 245
 214	 216
 214	 227
 214	 235
 214	 240
 214	 245
 215	 229
 215	 235
 215	 240
 216	 229
 216	 232
 216	 244
 217	 227
 217	 237
 217	 240
 217	 241
 217	 248
 218	 240
 219	 238
 219	 239
 219	 248
 220	 225
 220	 236
 220	 237
 221	 230
 221	 236
 221	 237
 223	 248
 224	 225
 224	 227
 224	 232
 224	 235
 224	 241
 226	 233
 227	 238
 227	 242
 228	 240
 231	 235
 231	 236
 232	 238
 232	 244
 232	 246
 233	 239
 234	 235
 234	 239
 234	 242
 234	 243
 236	 246
 237	 240
 238	 239
 244	 246
 247	 248
;
